111
0 38 70 95 103 45 73 79 17 74 
5 55 87 39 102 78 32 62 60 18 
110 48 90 75 33 15 58 43 52 24 
81 22 108 10 89 11 106 68 56 100 
12 84 25 35 65 21 93 51 53 44 
36 9 23 83 109 98 67 85 96 76 
6 86 54 66 49 46 77 92 57 19 
1 99 37 34 41 107 101 20 91 4 
94 59 72 3 40 50 29 27 28 105 
42 31 2 104 13 14 63 8 82 30 
97 64 71 26 80 61 16 7 47 88 
69 
